c defined variables: 
p cnf 85 57
a 1 2 3 4 5 6 7 8 9 10 11 12 13 0
d 14 1 4 7 8 11 12 0
d 15 12 13 0
d 16 0
d 17 3 7 10 0
d 18 2 5 6 8 9 0
d 19 2 7 0
d 20 3 9 10 11 0
d 21 7 12 0
d 22 2 0
d 23 3 4 5 7 10 13 0
d 24 4 5 0
d 25 8 9 13 0
d 26 3 4 7 0
d 27 7 9 10 0
-5 -9 15 17 -18 0
-10 -13 15 -17 18 0
-7 -10 16 -17 -20 0
5 10 -17 18 -20 0
6 -8 15 -18 20 0
5 -6 -16 18 20 0
2 4 -14 -19 20 0
-2 11 17 19 20 0
-9 -12 16 -20 -21 0
-7 -12 15 -17 -22 0
5 -6 17 -18 -22 0
-4 -8 14 19 -22 0
-7 8 14 -16 22 0
7 -12 15 19 22 0
1 -7 14 16 -23 0
-5 -9 -14 18 -23 0
3 -5 16 20 -23 0
-2 -10 18 -21 -23 0
4 5 -21 -22 -23 0
9 -13 -18 22 -23 0
7 10 19 -22 23 0
-5 -10 -19 22 23 0
-7 -12 -15 -19 -24 0
3 9 -18 23 -24 0
-7 -12 14 20 24 0
2 -4 -15 22 24 0
3 -7 -18 23 24 0
2 -9 17 -19 -25 0
7 12 14 -20 -25 0
12 -13 -15 -20 -25 0
-9 -13 16 21 -25 0
7 13 16 21 -25 0
2 -9 -20 -22 -25 0
2 -5 18 -23 -25 0
-3 -9 17 -18 25 0
6 -9 -18 -21 25 0
9 13 15 -24 25 0
4 8 -23 -24 25 0
10 11 18 20 -26 0
2 -9 18 -23 -26 0
-4 5 21 -23 -26 0
9 12 -15 -25 -26 0
-7 -13 21 -25 -26 0
-4 -7 -15 20 26 0
11 12 14 -23 26 0
-5 -7 15 -18 -27 0
-9 12 -15 18 -27 0
3 7 -18 -20 -27 0
-3 -9 -19 -20 -27 0
-3 13 -15 -23 -27 0
-4 10 14 25 -27 0
9 12 14 16 27 0
2 -5 -18 -21 27 0
6 8 18 -21 27 0
2 -10 -19 22 27 0
-1 9 -14 25 27 0
7 -8 23 25 27 0
